NAME : problems/30-tsp/instance-19.tsp
COMMENT : No Comment
TYPE : TSP
DIMENSION: 30
EDGE_WEIGHT_TYPE : EUC_2D
NODE_COORD_SECTION
1 7764 120 
2 4477 5749 
3 9384 3103 
4 6552 4749 
5 8876 9630 
6 8908 6217 
7 1899 7494 
8 3917 3181 
9 9114 3521 
10 7518 9379 
11 5443 9079 
12 3319 6467 
13 6505 3563 
14 4379 9182 
15 6521 5474 
16 4707 839 
17 2264 7615 
18 5541 3625 
19 6869 7020 
20 2635 3314 
21 1001 825 
22 6432 7159 
23 9049 1579 
24 2379 6533 
25 8190 2793 
26 5092 2916 
27 3372 6034 
28 7664 3055 
29 2048 3235 
30 1141 3943 
EOF
